c array.sh: path:     /data/qbf/qbf20/PCNF/fpu-10Xh-correct04-nonuniform-depth-14.qdimacs
c array.sh: name:     fpu-10Xh-correct04-nonuniform-depth-14
c array.sh: task:     54
c array.sh: host:     c3n27
c array.sh: uname:    Linux c3n27 4.15.0-135-generic #139-Ubuntu SMP Mon Jan 18 17:38:24 UTC 2021 x86_64 x86_64 x86_64 GNU/Linux
c array.sh: start:    Thu Feb 18 09:53:05 CET 2021
c array.sh: noturbo:  1
c array.sh: governor: 32 performance
c array.sh: tmp:      1%
c array.sh: unzipped: /tmp/local-unzipped-18838260-54-fpu-10Xh-correct04-nonuniform-depth-14.cnf
*** qbfcert: using tmp directory:
*** qbfcert:   /tmp
trace-size: 31240935
solving-res 20
proof-size: 3023897
cert-size: 2636661
cert-header: aag 386790 384537 0 0 0
merged-header: p cnf 3129340 7067276
merged-size: 148292352
c ---- [ banner ] ------------------------------------------------------------
c
c KISSAT SAT Solver
c Copyright (c) 2019-2020 Armin Biere JKU Linz
c 
c Version 1.0.3 59813addcacc4d6fb880ebdd63685600475aa940
c gcc (Ubuntu 7.5.0-3ubuntu1~18.04) 7.5.0 -W -Wall -O3 -DNEMBEDDED -DNDEBUG -DNMETRICS -DNSTATISTICS
c Sun Feb 14 23:58:54 CET 2021 Linux cluster3 4.15.0-135-generic x86_64
c
c ---- [ parsing ] -----------------------------------------------------------
c
c opened and reading DIMACS file:
c 
c   /tmp/qbfcert_merged_cnf6663.cnf
c 
c parsed 'p cnf 3129340 7067276' header
c closing input after reading 148292352 bytes (141 MB)
c finished parsing after 2.63 seconds
c
c ---- [ solving ] -----------------------------------------------------------
c
c  seconds  reductions redundant irredundant
c          MB   restarts    trail        variables
c           level  conflicts   glue            remaining
c
c *  2.63 395 0  0  0   1   0 0% 0 7067274 356400 11%
c {  2.63 395 0  0  0   1   0 0% 0 7067274 356400 11%
c }  2.63 395 0  0  0   1   0 0% 0 7067274 356400 11%
c 0  2.63 395 0  0  0   1   0 0% 0 7067274 356400 11%
c
c ---- [ result ] ------------------------------------------------------------
c
s UNSATISFIABLE
c
c ---- [ profiling ] ---------------------------------------------------------
c
c           2.63   99.99 %  parse
c           0.00    0.01 %  search
c           0.00    0.00 %  focused
c           0.00    0.00 %  simplify
c =============================================
c           2.63  100.00 %  total
c
c ---- [ statistics ] --------------------------------------------------------
c
c conflicts:                                1                0.38 per second
c decisions:                                0                0.00 per conflict
c propagations:                       2385810           906332    per second
c
c ---- [ resources ] ---------------------------------------------------------
c
c maximum-resident-set-size:        413966336 bytes        395 MB
c process-time:                             2s               2.63 seconds
c
c ---- [ shutting down ] -----------------------------------------------------
c
c exit 20
*** qbfcert: VALID
c array.sh: end:      Thu Feb 18 09:53:13 CET 2021
